c 171_4_checker_5cl.cnf
c
c field = 171
c formula set type = 4_checker_5cl
c
p cnf 5 6
310 
370 
400 
430 
-280 
311 
371 
401 
431 
-281 
308 
372 
404 
436 
-276 
309 
373 
405 
437 
-277 
312 
368 
396 
424 
-284 
313 
369 
397 
425 
-285 
